; benchmark generated from python API
(set-info :status unknown)
(declare-datatypes ((IntState 0)) (((Mk1 (val1 Int)) (Mk2 (val2 Int)))))
 (declare-fun c_main_~i~6 () Int)
(declare-fun c_main_~j~6 () Int)
(declare-fun c_main_~k~6 () Int)
(assert
 (let (($x33 (<= c_main_~i~6 3)))
 (let (($x91 (exists ((v_nnf_96_st IntState) (val!117 Int) )(let ((?x56 (val2 v_nnf_96_st)))
 (let (($x31 (<= ?x56 4)))
 (let (($x127 (and (<= (+ ?x56 2) c_main_~k~6) (<= c_main_~j~6 (+ (* 2 ?x56) 2)) $x31)))
 (let (($x52 (not (= v_nnf_96_st (Mk1 val!117)))))
 (and $x52 $x127))))))
 ))
 (let (($x88 (<= c_main_~j~6 (+ (* 2 c_main_~i~6) 2))))
 (let (($x120 (<= c_main_~i~6 4)))
 (let (($x62 (<= c_main_~j~6 (+ (* 2 c_main_~i~6) 1))))
 (let (($x36 (exists ((v_nnf_96 Int) )(let (($x170 (<= v_nnf_96 4)))
 (and (<= (+ v_nnf_96 2) c_main_~k~6) (<= c_main_~j~6 (+ (* 2 v_nnf_96) 2)) $x170)))
 ))
 (let (($x82 (<= c_main_~i~6 2)))
 (and (and $x62 $x120 $x88 $x82 $x36 $x33) (not (and $x62 $x120 $x88 $x91 $x33)))))))))))
(check-sat)
